conditionSynthesis/results/repairExamples_all_1h_G1/boundariesSl/crafted/4-A-synthesis_realizable.boundaries.sl
(set-logic ALL)
(synth-fun Condition_0 ((@g_0 Int) (main@%_1_0 Int) ) Bool
)
(define-fun main@entry!_Cond ((@g_0 Int) (main@%_1_0 Int) ) Bool
	false
)
(define-fun main@_6 ((@g_0 Int) (main@%_1_0 Int) ) Bool
	(not (>= main@%_1_0 3))
)
(define-fun main@_4 ((@g_0 Int) (main@%_1_0 Int) ) Bool
	(not (<= main@%_1_0 2))
)
(define-fun psi_f_0 ((@g_0 Int) (main@%_1_0 Int) ) Bool
(and (main@_4 @g_0 main@%_1_0) (not (main@entry!_Cond @g_0 main@%_1_0)))
)
(define-fun psi_t_0 ((@g_0 Int) (main@%_1_0 Int) ) Bool
(or (main@entry!_Cond @g_0 main@%_1_0) (not (main@_6 @g_0 main@%_1_0)))
)
(declare-var @g_0 Int)
(declare-var main@%_1_0 Int)
(constraint (=> (psi_f_0 @g_0 main@%_1_0 ) (Condition_0 @g_0 main@%_1_0 )))
(constraint (=> (Condition_0 @g_0 main@%_1_0 ) (psi_t_0 @g_0 main@%_1_0 )))
(check-synth)
