conditionSynthesis/results/repairExamples_all_1h_G1/boundaries/crafted/4-A-synthesis_realizable.boundaries.out
(
(define-fun Condition_0 ((vg_0 Int) (mainv%_1_0 Int)) Bool (> mainv%_1_0 2))
)
